30
30
1
3
3600
555 601 757 859 1364 1450 1471 1619 1649 1656 1787 1885 2033 2110 2142 2147 2155 2179 2257 2362 2412 2452 2578 2587 2607 2759 2808 2856 2873 2897 
36 30 18 16 16 11 27 9 9 6 9 22 13 5 9 9 39 16 34 32 25 10 10 16 7 16 38 30 7 40 
